
******************************************************************************
This program contains Ipopt, a library for large-scale nonlinear optimization.
 Ipopt is released as open source code under the Eclipse Public License (EPL).
         For more information visit http://projects.coin-or.org/Ipopt

This version of Ipopt was compiled from source code available at
    https://github.com/IDAES/Ipopt as part of the Institute for the Design of
    Advanced Energy Systems Process Systems Engineering Framework (IDAES PSE
    Framework) Copyright (c) 2018-2019. See https://github.com/IDAES/idaes-pse.

This version of Ipopt was compiled using HSL, a collection of Fortran codes
    for large-scale scientific computation.  All technical papers, sales and
    publicity material resulting from use of the HSL codes within IPOPT must
    contain the following acknowledgement:
        HSL, a collection of Fortran codes for large-scale scientific
        computation. See http://www.hsl.rl.ac.uk.
******************************************************************************

This is Ipopt version 3.13.2, running with linear solver ma27.

Number of nonzeros in equality constraint Jacobian...:     1840
Number of nonzeros in inequality constraint Jacobian.:        0
Number of nonzeros in Lagrangian Hessian.............:     3296

Total number of variables............................:      640
                     variables with only lower bounds:      128
                variables with lower and upper bounds:      448
                     variables with only upper bounds:        0
Total number of equality constraints.................:      632
Total number of inequality constraints...............:        0
        inequality constraints with only lower bounds:        0
   inequality constraints with lower and upper bounds:        0
        inequality constraints with only upper bounds:        0

iter    objective    inf_pr   inf_du lg(mu)  ||d||  lg(rg) alpha_du alpha_pr  ls
   0  0.0000000e+00 2.51e+00 7.11e-15  -1.0 0.00e+00    -  0.00e+00 0.00e+00   0
   1  1.1364371e+01 3.68e-01 1.78e+03  -1.0 4.43e+04    -  6.67e-01 9.90e-01h  1
   2  1.1871975e+01 1.73e-02 3.77e+01  -1.0 2.24e+03    -  9.53e-01 9.90e-01h  1
   3  1.1692290e+01 1.81e-03 7.94e+02  -1.0 1.37e+03    -  9.82e-01 9.90e-01H  1
   4  1.1692216e+01 5.65e-04 6.76e+00  -1.0 1.30e+00  -4.0 9.90e-01 9.90e-01h  1
   5  1.1691984e+01 5.65e-04 9.90e+08  -1.0 5.01e+03    -  9.90e-01 2.42e-04h 13
   6  1.1691867e+01 5.65e-04 1.98e+09  -1.0 5.04e+03    -  9.91e-01 1.21e-04h 14
   7  1.1691751e+01 5.65e-04 2.98e+09  -1.0 5.03e+03    -  1.00e+00 1.21e-04h 14
   8  1.1691635e+01 5.65e-04 3.98e+09  -1.0 5.03e+03    -  1.00e+00 1.21e-04h 14
   9  1.1691519e+01 5.65e-04 4.98e+09  -1.0 5.02e+03    -  1.00e+00 1.21e-04h 14
iter    objective    inf_pr   inf_du lg(mu)  ||d||  lg(rg) alpha_du alpha_pr  ls
  10  1.1691403e+01 5.65e-04 5.98e+09  -1.0 5.02e+03    -  1.00e+00 1.21e-04h 14
  11  1.1691171e+01 5.65e-04 6.98e+09  -1.0 5.02e+03    -  1.00e+00 2.42e-04h 13
  12  1.1690939e+01 5.65e-04 7.98e+09  -1.0 5.02e+03    -  1.00e+00 2.42e-04h 13
  13  1.1690707e+01 5.65e-04 8.98e+09  -1.0 5.02e+03    -  1.00e+00 2.42e-04h 13
  14  1.1690475e+01 5.65e-04 9.98e+09  -1.0 5.02e+03    -  1.00e+00 2.42e-04h 13
  15  1.1194762e+01 2.24e+00 1.10e+08  -1.0 5.02e+03    -  1.00e+00 9.90e-01w  1
  16  1.1206476e+01 1.08e+00 1.00e+09  -1.0 1.37e+02    -  1.00e+00 9.90e-01w  1
  17  1.1209417e+01 6.37e-02 1.00e+11  -1.0 9.17e+01    -  1.00e+00 9.90e-01w  1
  18  1.1690244e+01 5.65e-04 1.10e+10  -1.0 4.17e+00    -  1.00e+00 2.42e-04h 12
  19  1.1690012e+01 5.65e-04 1.20e+10  -1.0 5.02e+03    -  1.00e+00 2.42e-04h 13
iter    objective    inf_pr   inf_du lg(mu)  ||d||  lg(rg) alpha_du alpha_pr  ls
  20  1.1689781e+01 5.65e-04 1.30e+10  -1.0 5.02e+03    -  1.00e+00 2.42e-04h 13
  21  1.1689549e+01 5.65e-04 1.40e+10  -1.0 5.01e+03    -  1.00e+00 2.42e-04h 13
  22  1.1689318e+01 5.65e-04 1.50e+10  -1.0 5.01e+03    -  1.00e+00 2.42e-04h 13
  23  1.1689087e+01 5.65e-04 1.60e+10  -1.0 5.01e+03    -  1.00e+00 2.42e-04h 13
  24  1.1688856e+01 5.65e-04 1.70e+10  -1.0 5.01e+03    -  1.00e+00 2.42e-04h 13
  25  1.1688625e+01 5.65e-04 1.80e+10  -1.0 5.01e+03    -  1.00e+00 2.42e-04h 13
  26  1.1688395e+01 5.65e-04 1.90e+10  -1.0 5.01e+03    -  1.00e+00 2.42e-04h 13
  27  1.1688164e+01 5.65e-04 2.00e+10  -1.0 5.01e+03    -  1.00e+00 2.42e-04h 13
  28  1.1194867e+01 2.24e+00 2.10e+08  -1.0 5.00e+03    -  1.00e+00 9.90e-01w  1
  29  1.1206476e+01 1.09e+00 1.01e+09  -1.0 1.36e+02    -  1.00e+00 9.90e-01w  1
iter    objective    inf_pr   inf_du lg(mu)  ||d||  lg(rg) alpha_du alpha_pr  ls
  30  1.1209410e+01 6.53e-02 1.00e+11  -1.0 9.06e+01    -  1.00e+00 9.90e-01w  1
  31  1.1687934e+01 5.65e-04 2.10e+10  -1.0 4.58e+00    -  1.00e+00 2.42e-04h 12
  32  1.1687703e+01 5.65e-04 2.20e+10  -1.0 5.00e+03    -  1.00e+00 2.42e-04h 13
  33  1.1687473e+01 5.65e-04 2.30e+10  -1.0 5.00e+03    -  1.00e+00 2.42e-04h 13
  34  1.1687243e+01 5.65e-04 2.40e+10  -1.0 5.00e+03    -  1.00e+00 2.42e-04h 13
  35  1.1687013e+01 5.65e-04 2.50e+10  -1.0 5.00e+03    -  1.00e+00 2.42e-04h 13
  36  1.1686783e+01 5.65e-04 2.60e+10  -1.0 5.00e+03    -  1.00e+00 2.42e-04h 13
  37  1.1686553e+01 5.65e-04 2.70e+10  -1.0 5.00e+03    -  1.00e+00 2.42e-04h 13
  38  1.1686324e+01 5.65e-04 2.80e+10  -1.0 4.99e+03    -  1.00e+00 2.42e-04h 13
  39  1.1686094e+01 5.65e-04 2.90e+10  -1.0 4.99e+03    -  1.00e+00 2.42e-04h 13
iter    objective    inf_pr   inf_du lg(mu)  ||d||  lg(rg) alpha_du alpha_pr  ls
  40  1.1685865e+01 5.65e-04 3.00e+10  -1.0 4.99e+03    -  1.00e+00 2.42e-04h 13
  41  1.1194972e+01 2.23e+00 3.10e+08  -1.0 4.99e+03    -  1.00e+00 9.90e-01w  1
  42  1.1206477e+01 1.10e+00 1.01e+09  -1.0 1.35e+02    -  1.00e+00 9.90e-01w  1
  43  1.1209404e+01 6.68e-02 1.01e+11  -1.0 8.95e+01    -  1.00e+00 9.90e-01w  1
  44  1.1685635e+01 5.65e-04 3.10e+10  -1.0 4.98e+00    -  1.00e+00 2.42e-04h 12
  45  1.1685406e+01 5.65e-04 3.20e+10  -1.0 4.99e+03    -  1.00e+00 2.42e-04h 13
  46  1.1685177e+01 5.65e-04 3.30e+10  -1.0 4.99e+03    -  1.00e+00 2.42e-04h 13
  47  1.1684948e+01 5.65e-04 3.40e+10  -1.0 4.99e+03    -  1.00e+00 2.42e-04h 13
  48  1.1684719e+01 5.65e-04 3.50e+10  -1.0 4.99e+03    -  1.00e+00 2.42e-04h 13
  49  1.1684490e+01 5.65e-04 3.60e+10  -1.0 4.98e+03    -  1.00e+00 2.42e-04h 13
iter    objective    inf_pr   inf_du lg(mu)  ||d||  lg(rg) alpha_du alpha_pr  ls
  50  1.1684262e+01 5.65e-04 3.70e+10  -1.0 4.98e+03    -  1.00e+00 2.42e-04h 13
  51  1.1684033e+01 5.65e-04 3.80e+10  -1.0 4.98e+03    -  1.00e+00 2.42e-04h 13
  52  1.1683805e+01 5.65e-04 3.90e+10  -1.0 4.98e+03    -  1.00e+00 2.42e-04h 13
  53  1.1683576e+01 5.65e-04 4.00e+10  -1.0 4.98e+03    -  1.00e+00 2.42e-04h 13
  54  1.1195075e+01 2.23e+00 4.10e+08  -1.0 4.98e+03    -  1.00e+00 9.90e-01w  1
  55  1.1206477e+01 1.11e+00 1.01e+09  -1.0 1.34e+02    -  1.00e+00 9.90e-01w  1
  56  1.1209398e+01 6.82e-02 1.01e+11  -1.0 8.85e+01    -  1.00e+00 9.90e-01w  1
  57  1.1683348e+01 5.65e-04 4.10e+10  -1.0 5.37e+00    -  1.00e+00 2.42e-04h 12
  58  1.1683120e+01 5.65e-04 4.20e+10  -1.0 4.98e+03    -  1.00e+00 2.42e-04h 13
  59  1.1682892e+01 5.65e-04 4.30e+10  -1.0 4.97e+03    -  1.00e+00 2.42e-04h 13
iter    objective    inf_pr   inf_du lg(mu)  ||d||  lg(rg) alpha_du alpha_pr  ls
  60  1.1682664e+01 5.65e-04 4.39e+10  -1.0 4.97e+03    -  1.00e+00 2.42e-04h 13
  61  1.1682437e+01 5.65e-04 4.49e+10  -1.0 4.97e+03    -  1.00e+00 2.42e-04h 13
  62  1.1682209e+01 5.64e-04 4.59e+10  -1.0 4.97e+03    -  1.00e+00 2.42e-04h 13
  63  1.1681982e+01 5.64e-04 4.69e+10  -1.0 4.97e+03    -  1.00e+00 2.42e-04h 13
  64  1.1681754e+01 5.64e-04 4.79e+10  -1.0 4.97e+03    -  1.00e+00 2.42e-04h 13
  65  1.1681527e+01 5.64e-04 4.89e+10  -1.0 4.97e+03    -  1.00e+00 2.42e-04h 13
  66  1.1681300e+01 5.64e-04 4.99e+10  -1.0 4.97e+03    -  1.00e+00 2.42e-04h 13
  67  1.1195178e+01 2.23e+00 5.10e+08  -1.0 4.96e+03    -  1.00e+00 9.90e-01w  1
  68  1.1206479e+01 1.12e+00 1.02e+09  -1.0 1.33e+02    -  1.00e+00 9.90e-01w  1
  69  1.1209394e+01 6.95e-02 1.01e+11  -1.0 8.74e+01    -  1.00e+00 9.90e-01w  1
iter    objective    inf_pr   inf_du lg(mu)  ||d||  lg(rg) alpha_du alpha_pr  ls
  70  1.1681073e+01 5.64e-04 5.09e+10  -1.0 5.74e+00    -  1.00e+00 2.42e-04h 12
  71  1.1680846e+01 5.64e-04 5.19e+10  -1.0 4.96e+03    -  1.00e+00 2.42e-04h 13
  72  1.1680619e+01 5.64e-04 5.29e+10  -1.0 4.96e+03    -  1.00e+00 2.42e-04h 13
  73  1.1680392e+01 5.64e-04 5.39e+10  -1.0 4.96e+03    -  1.00e+00 2.42e-04h 13
  74  1.1680166e+01 5.64e-04 5.49e+10  -1.0 4.96e+03    -  1.00e+00 2.42e-04h 13
  75  1.1679939e+01 5.64e-04 5.59e+10  -1.0 4.96e+03    -  1.00e+00 2.42e-04h 13
  76  1.1679713e+01 5.64e-04 5.69e+10  -1.0 4.96e+03    -  1.00e+00 2.42e-04h 13
  77  1.1679487e+01 5.64e-04 5.79e+10  -1.0 4.95e+03    -  1.00e+00 2.42e-04h 13
  78  1.1679260e+01 5.64e-04 5.89e+10  -1.0 4.95e+03    -  1.00e+00 2.42e-04h 13
  79  1.1679034e+01 5.64e-04 5.99e+10  -1.0 4.95e+03    -  1.00e+00 2.42e-04h 13
iter    objective    inf_pr   inf_du lg(mu)  ||d||  lg(rg) alpha_du alpha_pr  ls
  80  1.1195280e+01 2.22e+00 6.10e+08  -1.0 4.95e+03    -  1.00e+00 9.90e-01w  1
  81  1.1206480e+01 1.13e+00 1.02e+09  -1.0 1.32e+02    -  1.00e+00 9.90e-01w  1
  82  1.1209390e+01 7.07e-02 1.01e+11  -1.0 8.64e+01    -  1.00e+00 9.90e-01w  1
  83  1.1678808e+01 5.64e-04 6.09e+10  -1.0 6.09e+00    -  1.00e+00 2.42e-04h 12
  84  1.1678583e+01 5.64e-04 6.19e+10  -1.0 4.95e+03    -  1.00e+00 2.42e-04h 13
  85  1.1678357e+01 5.64e-04 6.29e+10  -1.0 4.95e+03    -  1.00e+00 2.42e-04h 13
  86  1.1678131e+01 5.64e-04 6.39e+10  -1.0 4.95e+03    -  1.00e+00 2.42e-04h 13
  87  1.1677906e+01 5.64e-04 6.49e+10  -1.0 4.95e+03    -  1.00e+00 2.42e-04h 13
  88  1.1677680e+01 5.64e-04 6.59e+10  -1.0 4.94e+03    -  1.00e+00 2.42e-04h 13
  89  1.1677455e+01 5.64e-04 6.69e+10  -1.0 4.94e+03    -  1.00e+00 2.42e-04h 13
iter    objective    inf_pr   inf_du lg(mu)  ||d||  lg(rg) alpha_du alpha_pr  ls
  90  1.1677230e+01 5.64e-04 6.79e+10  -1.0 4.94e+03    -  1.00e+00 2.42e-04h 13
  91  1.1677005e+01 5.64e-04 6.89e+10  -1.0 4.94e+03    -  1.00e+00 2.42e-04h 13
  92  1.1676780e+01 5.64e-04 6.99e+10  -1.0 4.94e+03    -  1.00e+00 2.42e-04h 13
  93  1.1195381e+01 2.22e+00 7.09e+08  -1.0 4.94e+03    -  1.00e+00 9.90e-01w  1
  94  1.1206482e+01 1.14e+00 1.02e+09  -1.0 1.31e+02    -  1.00e+00 9.90e-01w  1
  95  1.1209388e+01 7.19e-02 1.02e+11  -1.0 8.55e+01    -  1.00e+00 9.90e-01w  1
  96  1.1676555e+01 5.64e-04 7.09e+10  -1.0 6.43e+00    -  1.00e+00 2.42e-04h 12
  97  1.1676331e+01 5.64e-04 7.19e+10  -1.0 4.94e+03    -  1.00e+00 2.42e-04h 13
  98  1.1676106e+01 5.64e-04 7.29e+10  -1.0 4.93e+03    -  1.00e+00 2.42e-04h 13
  99  1.1675882e+01 5.64e-04 7.39e+10  -1.0 4.93e+03    -  1.00e+00 2.42e-04h 13
iter    objective    inf_pr   inf_du lg(mu)  ||d||  lg(rg) alpha_du alpha_pr  ls
 100  1.1675657e+01 5.64e-04 7.49e+10  -1.0 4.93e+03    -  1.00e+00 2.42e-04h 13
 101  1.1675433e+01 5.64e-04 7.59e+10  -1.0 4.93e+03    -  1.00e+00 2.42e-04h 13
 102  1.1675209e+01 5.64e-04 7.69e+10  -1.0 4.93e+03    -  1.00e+00 2.42e-04h 13
 103  1.1674985e+01 5.64e-04 7.79e+10  -1.0 4.93e+03    -  1.00e+00 2.42e-04h 13
 104  1.1674761e+01 5.64e-04 7.89e+10  -1.0 4.93e+03    -  1.00e+00 2.42e-04h 13
 105  1.1674537e+01 5.64e-04 7.99e+10  -1.0 4.93e+03    -  1.00e+00 2.42e-04h 13
 106  1.1195481e+01 2.21e+00 8.09e+08  -1.0 4.92e+03    -  1.00e+00 9.90e-01w  1
 107  1.1206484e+01 1.15e+00 1.03e+09  -1.0 1.30e+02    -  1.00e+00 9.90e-01w  1
 108  1.1209388e+01 7.29e-02 1.02e+11  -1.0 8.45e+01    -  1.00e+00 9.90e-01w  1
 109  1.1674314e+01 5.64e-04 8.09e+10  -1.0 6.74e+00    -  1.00e+00 2.42e-04h 12
iter    objective    inf_pr   inf_du lg(mu)  ||d||  lg(rg) alpha_du alpha_pr  ls
 110  1.1674090e+01 5.64e-04 8.19e+10  -1.0 4.92e+03    -  1.00e+00 2.42e-04h 13
 111  1.1673866e+01 5.64e-04 8.29e+10  -1.0 4.92e+03    -  1.00e+00 2.42e-04h 13
 112  1.1673643e+01 5.64e-04 8.39e+10  -1.0 4.92e+03    -  1.00e+00 2.42e-04h 13
 113  1.1673420e+01 5.64e-04 8.49e+10  -1.0 4.92e+03    -  1.00e+00 2.42e-04h 13
 114  1.1673197e+01 5.64e-04 8.59e+10  -1.0 4.92e+03    -  1.00e+00 2.42e-04h 13
 115  1.1672974e+01 5.64e-04 8.69e+10  -1.0 4.92e+03    -  1.00e+00 2.42e-04h 13
 116  1.1672751e+01 5.64e-04 8.79e+10  -1.0 4.92e+03    -  1.00e+00 2.42e-04h 13
 117  1.1672528e+01 5.64e-04 8.89e+10  -1.0 4.91e+03    -  1.00e+00 2.42e-04h 13
 118  1.1672305e+01 5.64e-04 8.99e+10  -1.0 4.91e+03    -  1.00e+00 2.42e-04h 13
 119  1.1195580e+01 2.21e+00 9.09e+08  -1.0 4.91e+03    -  1.00e+00 9.90e-01w  1
iter    objective    inf_pr   inf_du lg(mu)  ||d||  lg(rg) alpha_du alpha_pr  ls
 120  1.1206487e+01 1.16e+00 1.03e+09  -1.0 1.29e+02    -  1.00e+00 9.90e-01w  1
 121  1.1209390e+01 7.38e-02 1.02e+11  -1.0 8.36e+01    -  1.00e+00 9.90e-01w  1
 122  1.1672083e+01 5.64e-04 9.09e+10  -1.0 7.03e+00    -  1.00e+00 2.42e-04h 12
 123  1.1671860e+01 5.64e-04 9.19e+10  -1.0 4.91e+03    -  1.00e+00 2.42e-04h 13
 124  1.1671638e+01 5.64e-04 9.29e+10  -1.0 4.91e+03    -  1.00e+00 2.42e-04h 13
 125  1.1671416e+01 5.64e-04 9.39e+10  -1.0 4.91e+03    -  1.00e+00 2.42e-04h 13
 126  1.1671194e+01 5.64e-04 9.49e+10  -1.0 4.91e+03    -  1.00e+00 2.42e-04h 13
 127  1.1670972e+01 5.64e-04 9.59e+10  -1.0 4.90e+03    -  1.00e+00 2.42e-04h 13
 128  1.1670750e+01 5.64e-04 9.69e+10  -1.0 4.90e+03    -  1.00e+00 2.42e-04h 13
 129  1.1670528e+01 5.64e-04 9.79e+10  -1.0 4.90e+03    -  1.00e+00 2.42e-04h 13
iter    objective    inf_pr   inf_du lg(mu)  ||d||  lg(rg) alpha_du alpha_pr  ls
 130  1.1670306e+01 5.64e-04 9.89e+10  -1.0 4.90e+03    -  1.00e+00 2.42e-04h 13
 131  1.1670085e+01 5.64e-04 9.99e+10  -1.0 4.90e+03    -  1.00e+00 2.42e-04h 13
 132  1.1195679e+01 2.21e+00 1.01e+09  -1.0 4.90e+03    -  1.00e+00 9.90e-01w  1
 133  1.1206489e+01 1.17e+00 1.03e+09  -1.0 1.28e+02    -  1.00e+00 9.90e-01w  1
 134  1.1209395e+01 7.44e-02 1.02e+11  -1.0 8.28e+01    -  1.00e+00 9.90e-01w  1
 135  1.1669863e+01 5.64e-04 1.01e+11  -1.0 7.29e+00    -  1.00e+00 2.42e-04h 12
 136  1.1669642e+01 5.64e-04 1.02e+11  -1.0 4.90e+03    -  1.00e+00 2.42e-04h 13
 137  1.1669421e+01 5.64e-04 1.03e+11  -1.0 4.90e+03    -  1.00e+00 2.42e-04h 13
 138  1.1669199e+01 5.64e-04 1.04e+11  -1.0 4.89e+03    -  1.00e+00 2.42e-04h 13
 139  1.1668978e+01 5.64e-04 1.05e+11  -1.0 4.89e+03    -  1.00e+00 2.42e-04h 13
iter    objective    inf_pr   inf_du lg(mu)  ||d||  lg(rg) alpha_du alpha_pr  ls
 140  1.1668758e+01 5.64e-04 1.06e+11  -1.0 4.89e+03    -  1.00e+00 2.42e-04h 13
 141  1.1668537e+01 5.64e-04 1.07e+11  -1.0 4.89e+03    -  1.00e+00 2.42e-04h 13
 142  1.1668316e+01 5.64e-04 1.08e+11  -1.0 4.89e+03    -  1.00e+00 2.42e-04h 13
 143  1.1668095e+01 5.63e-04 1.09e+11  -1.0 4.89e+03    -  1.00e+00 2.42e-04h 13
 144  1.1667875e+01 5.63e-04 1.10e+11  -1.0 4.89e+03    -  1.00e+00 2.42e-04h 13
 145  1.1195776e+01 2.20e+00 1.11e+09  -1.0 4.89e+03    -  1.00e+00 9.90e-01w  1
 146  1.1206492e+01 1.18e+00 1.04e+09  -1.0 1.27e+02    -  1.00e+00 9.90e-01w  1
 147  1.1209405e+01 7.48e-02 1.03e+11  -1.0 8.20e+01    -  1.00e+00 9.90e-01w  1
 148  1.1667655e+01 5.63e-04 1.11e+11  -1.0 7.50e+00    -  1.00e+00 2.42e-04h 12
 149  1.1667434e+01 5.63e-04 1.12e+11  -1.0 4.88e+03    -  1.00e+00 2.42e-04h 13
iter    objective    inf_pr   inf_du lg(mu)  ||d||  lg(rg) alpha_du alpha_pr  ls
 150  1.1667214e+01 5.63e-04 1.13e+11  -1.0 4.88e+03    -  1.00e+00 2.42e-04h 13
 151  1.1666994e+01 5.63e-04 1.14e+11  -1.0 4.88e+03    -  1.00e+00 2.42e-04h 13
 152  1.1666774e+01 5.63e-04 1.15e+11  -1.0 4.88e+03    -  1.00e+00 2.42e-04h 13
 153  1.1666554e+01 5.63e-04 1.16e+11  -1.0 4.88e+03    -  1.00e+00 2.42e-04h 13
 154  1.1666335e+01 5.63e-04 1.17e+11  -1.0 4.88e+03    -  1.00e+00 2.42e-04h 13
 155  1.1666115e+01 5.63e-04 1.18e+11  -1.0 4.88e+03    -  1.00e+00 2.42e-04h 13
 156  1.1665896e+01 5.63e-04 1.19e+11  -1.0 4.87e+03    -  1.00e+00 2.42e-04h 13
 157  1.1665676e+01 5.63e-04 1.20e+11  -1.0 4.87e+03    -  1.00e+00 2.42e-04h 13
 158  1.1195873e+01 2.20e+00 1.21e+09  -1.0 4.87e+03    -  1.00e+00 9.90e-01w  1
 159  1.1206496e+01 1.19e+00 1.04e+09  -1.0 1.26e+02    -  1.00e+00 9.90e-01w  1
iter    objective    inf_pr   inf_du lg(mu)  ||d||  lg(rg) alpha_du alpha_pr  ls
 160  1.1209423e+01 7.49e-02 1.03e+11  -1.0 8.13e+01    -  1.00e+00 9.90e-01w  1
 161  1.1665457e+01 5.63e-04 1.21e+11  -1.0 7.64e+00    -  1.00e+00 2.42e-04h 12
 162  1.1665238e+01 5.63e-04 1.22e+11  -1.0 4.87e+03    -  1.00e+00 2.42e-04h 13
 163  1.1665019e+01 5.63e-04 1.23e+11  -1.0 4.87e+03    -  1.00e+00 2.42e-04h 13
 164  1.1664800e+01 5.63e-04 1.24e+11  -1.0 4.87e+03    -  1.00e+00 2.42e-04h 13
 165  1.1664581e+01 5.63e-04 1.25e+11  -1.0 4.87e+03    -  1.00e+00 2.42e-04h 13
 166  1.1664362e+01 5.63e-04 1.26e+11  -1.0 4.87e+03    -  1.00e+00 2.42e-04h 13
 167  1.1664144e+01 5.63e-04 1.27e+11  -1.0 4.86e+03    -  1.00e+00 2.42e-04h 13
 168  1.1663925e+01 5.63e-04 1.28e+11  -1.0 4.86e+03    -  1.00e+00 2.42e-04h 13
 169  1.1663707e+01 5.63e-04 1.29e+11  -1.0 4.86e+03    -  1.00e+00 2.42e-04h 13
iter    objective    inf_pr   inf_du lg(mu)  ||d||  lg(rg) alpha_du alpha_pr  ls
 170  1.1663488e+01 5.63e-04 1.30e+11  -1.0 4.86e+03    -  1.00e+00 2.42e-04h 13
 171  1.1195969e+01 2.19e+00 1.31e+09  -1.0 4.86e+03    -  1.00e+00 9.90e-01w  1
 172  1.1206499e+01 1.20e+00 1.04e+09  -1.0 1.25e+02    -  1.00e+00 9.90e-01w  1
 173  1.1209460e+01 7.41e-02 1.03e+11  -1.0 8.09e+01    -  1.00e+00 9.90e-01w  1
 174  1.1663270e+01 5.63e-04 1.31e+11  -1.0 7.59e+00    -  1.00e+00 2.42e-04h 12
 175  1.1663052e+01 5.63e-04 1.32e+11  -1.0 4.86e+03    -  1.00e+00 2.42e-04h 13
 176  1.1662834e+01 5.63e-04 1.33e+11  -1.0 4.86e+03    -  1.00e+00 2.42e-04h 13
 177  1.1662616e+01 5.63e-04 1.34e+11  -1.0 4.86e+03    -  1.00e+00 2.42e-04h 13
 178  1.1662399e+01 5.63e-04 1.35e+11  -1.0 4.85e+03    -  1.00e+00 2.42e-04h 13
 179  1.1662181e+01 5.63e-04 1.36e+11  -1.0 4.85e+03    -  1.00e+00 2.42e-04h 13
iter    objective    inf_pr   inf_du lg(mu)  ||d||  lg(rg) alpha_du alpha_pr  ls
 180  1.1661963e+01 5.63e-04 1.37e+11  -1.0 4.85e+03    -  1.00e+00 2.42e-04h 13
 181  1.1661746e+01 5.63e-04 1.38e+11  -1.0 4.85e+03    -  1.00e+00 2.42e-04h 13
 182  1.1661529e+01 5.63e-04 1.39e+11  -1.0 4.85e+03    -  1.00e+00 2.42e-04h 13
 183  1.1661311e+01 5.63e-04 1.40e+11  -1.0 4.85e+03    -  1.00e+00 2.42e-04h 13
 184  1.1196064e+01 2.19e+00 1.41e+09  -1.0 4.85e+03    -  1.00e+00 9.90e-01w  1
 185  1.1206503e+01 1.21e+00 1.05e+09  -1.0 1.24e+02    -  1.00e+00 9.90e-01w  1
 186  1.1209575e+01 7.13e-02 1.03e+11  -1.0 8.13e+01    -  1.00e+00 9.90e-01w  1
In iteration 186, 32 Slacks too small, adjusting variable bounds
 187  1.1209871e+01 8.56e-04 1.03e+13  -1.0 6.83e+00    -  1.00e+00 9.90e-01h  1
 188  1.1209872e+01 6.57e-08 1.95e-02  -1.0 5.90e-02    -  1.00e+00 1.00e+00h  1
 189  1.1167020e+01 7.87e-03 4.41e+11  -8.6 3.02e+02    -  9.59e-01 1.00e+00f  1
iter    objective    inf_pr   inf_du lg(mu)  ||d||  lg(rg) alpha_du alpha_pr  ls
 190  1.0992775e+01 1.53e+00 1.03e+11  -8.6 1.83e+03    -  7.66e-01 1.00e+00h  1
 191  1.0973594e+01 3.39e-01 7.08e+09  -8.6 6.83e+02    -  9.31e-01 1.00e+00h  1
 192  1.0973601e+01 1.51e-02 2.26e+07  -8.6 1.13e+01  -4.5 9.97e-01 1.00e+00h  1
 193  1.0973601e+01 4.65e-05 2.05e-04  -8.6 6.28e-01  -5.0 1.00e+00 1.00e+00h  1
 194  1.0971663e+01 4.81e+01 2.75e+00  -8.6 1.94e+02    -  1.00e+00 1.00e+00h  1
 195  1.0919416e+01 4.45e+01 1.03e+01  -8.6 8.14e+04    -  9.72e-01 7.58e-02h  3
 196  1.0946453e+01 4.42e+01 1.03e+01  -8.6 8.22e+04    -  1.00e+00 5.48e-03h  6
 197  1.0972083e+01 4.40e+01 1.03e+01  -8.6 8.11e+04    -  7.75e-01 5.08e-03h  6
 198  1.0973416e+01 4.40e+01 1.03e+01  -8.6 7.96e+04    -  1.00e+00 2.94e-04h 10
 199  1.0973580e+01 4.40e+01 1.03e+01  -8.6 7.95e+04    -  7.47e-01 3.66e-05h 13
iter    objective    inf_pr   inf_du lg(mu)  ||d||  lg(rg) alpha_du alpha_pr  ls
 200  1.3498989e+01 3.74e+01 4.01e+01  -8.6 7.95e+04    -  1.00e+00 1.50e-01h  1
In iteration 200, 32 Slacks too small, adjusting variable bounds
 201  1.3500737e+01 3.74e+01 4.01e+01  -8.6 1.38e+05    -  7.85e-01 6.85e-05h  1
 202  8.8084604e+01 2.21e+01 1.49e+03  -8.6 1.39e+05    -  1.00e+00 4.10e-01h  1
 203  4.9014839e+02 1.32e+01 7.59e+11  -8.6 1.87e+05    -  3.66e-01 6.96e-01h  1
 204  4.9014839e+02 1.32e+01 6.02e+16  -8.6 1.88e+01   6.0 1.19e-07 3.32e-04h  3
 205r 4.9014839e+02 1.32e+01 1.00e+03   1.1 0.00e+00   5.5 0.00e+00 1.42e-07R  2
 206r 4.9014550e+02 1.16e+01 1.43e+03   1.1 7.39e+03    -  2.83e-08 1.17e-03f  1
 207  4.9087237e+02 7.79e+00 1.24e+00  -8.6 4.77e+05    -  7.06e-02 1.75e-03h  6
 208  4.9088818e+02 7.79e+00 3.99e+01  -8.6 4.75e+05    -  2.38e-05 3.66e-05h 15
 209  4.9088817e+02 7.27e+00 2.23e+10  -8.6 7.79e+00   5.1 9.28e-04 6.62e-02h  1
iter    objective    inf_pr   inf_du lg(mu)  ||d||  lg(rg) alpha_du alpha_pr  ls
 210  6.0695799e+02 6.29e+00 2.24e+15  -8.6 3.79e+05   4.6 3.37e-03 1.35e-01h  1
 211r 6.0695799e+02 6.29e+00 9.99e+02   0.8 0.00e+00   4.1 0.00e+00 3.79e-11R  2
 212r 6.0694920e+02 3.37e+00 9.97e+02   0.8 5.96e+03    -  2.51e-03 1.90e-03f  1
 213  6.1045037e+02 3.93e+00 3.21e+03  -8.6 4.41e+05    -  2.44e-04 1.91e-01h  3
 214  6.2019191e+02 3.58e+00 3.16e+03  -8.6 5.60e+05    -  1.58e-01 6.25e-02h  5
 215  3.0339333e+03 5.81e+00 1.88e+04  -8.6 3.66e+05    -  2.47e-01 8.32e-01h  1
 216r 3.0339333e+03 5.81e+00 9.99e+02   0.8 0.00e+00   3.6 0.00e+00 1.37e-12R  2
 217r 3.0339347e+03 2.99e+00 9.98e+02   0.8 8.42e+03    -  1.18e-03 1.18e-03f  1
 218  1.8471596e+03 4.48e+00 6.33e+02  -8.6 3.99e+05    -  6.46e-01 5.00e-01f  2
 219  1.7274074e+03 1.50e+01 7.31e+02  -8.6 2.01e+05    -  4.31e-01 5.00e-01f  2
iter    objective    inf_pr   inf_du lg(mu)  ||d||  lg(rg) alpha_du alpha_pr  ls
 220  1.5060325e+03 9.41e+00 1.47e+03  -8.6 2.05e+05    -  6.61e-01 1.00e+00f  1
 221  1.4308109e+03 7.92e+00 1.65e+03  -8.6 3.82e+05    -  4.43e-01 1.58e-01f  1
 222  1.4923635e+03 6.22e+00 1.14e+03  -8.6 1.85e+05    -  4.05e-03 2.15e-01h  3
 223  2.0457836e+03 9.95e+00 7.20e+03  -8.6 2.71e+05    -  2.03e-01 1.00e+00h  1
 224  1.8999316e+03 8.33e+00 6.85e+04  -8.6 5.96e+05    -  4.22e-01 1.63e-01f  3
 225  2.0412626e+03 7.06e+00 1.37e+05  -8.6 2.72e+05    -  1.04e-01 1.00e+00h  1
 226  2.0100861e+03 7.36e+00 1.22e+05  -8.6 2.60e+05    -  1.12e-01 1.00e+00f  1
MA27BD returned iflag=-4 and requires more memory.
 Increase liw from 35915 to 71830 and la from 38400 to 77122 and factorize again.
 227  2.0100836e+03 7.36e+00 4.27e+05  -8.6 1.73e+05   3.2 1.32e-01 6.88e-05h  1
 228r 2.0100836e+03 7.36e+00 1.00e+03   0.9 0.00e+00   2.7 0.00e+00 1.02e-10R  5
 229r 2.0100816e+03 7.39e+00 1.00e+03   0.9 4.93e+06    -  5.83e-11 1.66e-07f  1
iter    objective    inf_pr   inf_du lg(mu)  ||d||  lg(rg) alpha_du alpha_pr  ls
 230r 2.0100798e+03 4.93e+00 1.00e+03   0.9 5.04e+03    -  1.20e-06 1.18e-03f  1
 231  2.0068755e+03 6.61e+00 9.11e+02  -8.6 2.40e+05    -  2.99e-01 1.00e+00f  1
 232  1.9795761e+03 6.85e+00 4.36e+04  -8.6 2.38e+05    -  6.21e-01 1.00e+00f  1
 233  1.8134098e+03 5.92e+00 1.93e+05  -8.6 2.19e+05    -  6.47e-03 1.00e+00f  1
 234  1.7438048e+03 7.15e+00 4.97e+04  -8.6 2.32e+05    -  7.42e-01 5.00e-01f  2
 235  1.8293016e+03 3.66e+00 4.20e+04  -8.6 1.19e+05    -  1.56e-01 2.05e-01H  1
 236r 1.8293016e+03 3.66e+00 1.00e+03   0.6 0.00e+00   2.2 0.00e+00 4.20e-10R  2
 237r 1.8293008e+03 1.58e+00 1.00e+03   0.6 2.65e+03    -  1.05e-06 1.37e-03f  1
 238  1.8079630e+03 1.22e+01 1.18e+02  -8.6 1.82e+05    -  6.26e-01 7.76e-02F  1
 239  1.7385876e+03 6.11e+00 4.61e+02  -8.6 1.93e+05    -  6.59e-02 5.00e-01f  2
iter    objective    inf_pr   inf_du lg(mu)  ||d||  lg(rg) alpha_du alpha_pr  ls
 240r 1.7385876e+03 6.11e+00 9.99e+02   0.8 0.00e+00   1.7 0.00e+00 7.90e-10R  2
 241r 1.7385862e+03 6.11e+00 1.03e+03   0.8 4.61e+06    -  9.82e-09 8.98e-07f  1
 242r 1.7385810e+03 2.86e+00 1.02e+03   0.8 5.94e+03    -  7.28e-04 1.02e-03f  1
 243  1.5392133e+03 3.14e+00 5.71e+02  -8.6 2.41e+05    -  7.26e-01 3.27e-01f  2
 244  1.4633990e+03 2.97e+00 5.45e+02  -8.6 7.27e+05    -  4.17e-01 5.43e-02f  1
In iteration 244, 1 Slack too small, adjusting variable bound
 245  1.4556680e+03 2.92e+00 5.36e+02  -8.6 1.25e+05    -  8.43e-01 1.76e-02f  1
 246  1.6102378e+03 2.67e+00 2.39e+02  -8.6 8.57e+04    -  7.87e-01 3.72e-01h  1
 247  1.7455756e+03 4.69e+00 4.20e+02  -8.6 3.01e+05    -  3.27e-01 3.57e-01h  1
 248  1.6862117e+03 4.18e+00 3.80e+02  -8.6 1.91e+05    -  5.64e-03 1.09e-01f  2
 249r 1.6862117e+03 4.18e+00 9.99e+02   0.6 0.00e+00    -  0.00e+00 1.58e-08R  2
iter    objective    inf_pr   inf_du lg(mu)  ||d||  lg(rg) alpha_du alpha_pr  ls
 250r 1.6862122e+03 4.17e+00 9.99e+02   0.6 2.15e+09    -  4.07e-09 1.75e-09f  1
 251r 1.6862109e+03 2.39e+00 9.99e+02   0.6 6.72e+03    -  1.83e-05 8.38e-04f  1
 252  1.6862058e+03 2.39e+00 1.80e+00  -8.6 2.34e+05    -  2.19e-01 3.55e-06f  1
 253  1.4039401e+03 7.59e+00 6.78e+02  -8.6 1.65e+05    -  7.09e-01 4.91e-01f  1
In iteration 253, 1 Slack too small, adjusting variable bound
 254  1.3534558e+03 7.16e+00 6.29e+02  -8.6 2.75e+05    -  1.49e-09 5.70e-02f  1
 255  1.1352577e+03 6.60e+00 6.38e+02  -8.6 3.31e+05    -  3.20e-01 2.18e-01f  3
 256r 1.1352577e+03 6.60e+00 9.99e+02   0.8 0.00e+00   1.3 0.00e+00 1.16e-09R  2
 257r 1.1352581e+03 3.33e+00 9.98e+02   0.8 5.64e+03    -  5.90e-04 1.16e-03f  1
 258  1.1352539e+03 3.33e+00 6.54e-01  -8.6 1.95e+05    -  8.28e-01 1.84e-05h  1
 259  1.1422416e+03 3.23e+00 1.17e+01  -8.6 2.12e+05    -  6.29e-01 5.99e-02h  4
In iteration 259, 1 Slack too small, adjusting variable bound
iter    objective    inf_pr   inf_du lg(mu)  ||d||  lg(rg) alpha_du alpha_pr  ls
 260  1.3991033e+03 3.25e+00 6.57e+02  -8.6 1.35e+05    -  7.90e-01 3.94e-01h  1
 261  1.3929894e+03 3.14e+00 6.32e+02  -8.6 2.65e+05    -  6.41e-01 3.38e-02f  5
 262  1.4570222e+03 3.92e+00 5.47e+02  -8.6 2.26e+05    -  8.13e-01 1.53e-01h  3
 263  1.5850876e+03 3.17e+00 3.59e+02  -8.6 8.47e+04    -  8.76e-01 3.81e-01h  1
 264r 1.5850876e+03 3.17e+00 9.99e+02   0.5 0.00e+00    -  0.00e+00 8.31e-10R  2
 265r 1.5850920e+03 3.17e+00 9.99e+02   0.5 4.59e+08    -  1.23e-07 1.30e-08f  3
 266r 1.5850938e+03 1.93e+00 9.97e+02   0.5 4.37e+03    -  2.95e-03 1.38e-03f  1
 267  1.5498072e+03 2.44e+00 6.48e+01  -8.6 1.81e+05    -  8.49e-01 1.44e-01f  3
 268  1.5216475e+03 3.42e+00 4.23e+01  -8.6 2.46e+05    -  8.86e-01 1.19e-01f  4
 269  1.4717332e+03 3.07e+00 3.91e+01  -8.6 1.42e+05    -  1.00e+00 1.02e-01f  4
iter    objective    inf_pr   inf_du lg(mu)  ||d||  lg(rg) alpha_du alpha_pr  ls
 270  1.4402066e+03 3.06e+00 3.77e+01  -8.6 1.28e+05    -  1.00e+00 1.01e-01f  4
 271  2.0781229e+03 9.84e-01 2.22e+03  -8.6 1.49e+05    -  9.79e-01 6.79e-01h  1
 272  2.0999615e+03 9.26e-01 2.18e+03  -8.6 1.89e+05    -  2.21e-01 1.58e-02H  1
 273  2.0717568e+03 1.00e+00 2.04e+03  -8.6 1.82e+05    -  1.40e-09 6.58e-02f  1
 274  2.0671714e+03 9.92e-01 2.02e+03  -8.6 1.41e+05    -  1.00e+00 7.65e-03f  1
 275r 2.0671714e+03 9.92e-01 9.99e+02  -0.0 0.00e+00    -  0.00e+00 1.89e-10R  2
 276r 2.0671712e+03 9.92e-01 9.99e+02  -0.0 2.48e+07    -  2.86e-07 8.88e-09f  6
 277r 2.0671945e+03 4.52e-01 9.99e+02  -0.0 8.95e+03    -  6.14e-05 1.23e-03f  1
 278  2.0296031e+03 4.55e-01 8.66e+00  -8.6 3.56e+05    -  1.00e+00 2.17e-02f  1
 279r 2.0296031e+03 4.55e-01 9.99e+02  -0.3 0.00e+00    -  0.00e+00 1.14e-10R  2
iter    objective    inf_pr   inf_du lg(mu)  ||d||  lg(rg) alpha_du alpha_pr  ls
 280r 2.0296012e+03 4.56e-01 9.99e+02  -0.3 5.86e+07    -  3.64e-07 2.43e-08f  5
 281r 2.0296133e+03 1.17e-01 9.96e+02  -0.3 1.83e+03    -  4.06e-03 1.21e-03f  1
 282  1.8840327e+03 6.46e-01 5.42e+01  -8.6 3.47e+05    -  7.50e-01 9.16e-02f  1
In iteration 282, 1 Slack too small, adjusting variable bound
 283  1.8840327e+03 6.46e-01 5.42e+01  -8.6 2.54e+05    -  6.75e-01 7.29e-10h  1
 284  1.7792365e+03 2.81e+00 6.99e+01  -8.6 2.55e+05    -  1.15e-04 9.18e-02f  4
 285  1.6123779e+03 2.28e+00 1.09e+02  -8.6 1.93e+05    -  1.00e+00 2.50e-01f  3
 286  1.5376795e+03 4.73e+00 1.17e+02  -8.6 2.10e+05    -  1.00e+00 1.63e-01f  1
In iteration 286, 1 Slack too small, adjusting variable bound
 287  1.5376795e+03 4.73e+00 1.17e+02  -8.6 2.26e+05    -  2.64e-01 3.27e-09h  1
 288  1.4724704e+03 4.23e+00 1.11e+02  -8.6 2.30e+05    -  1.27e-09 1.05e-01f  3
 289  1.4844989e+03 3.88e+00 1.00e+02  -8.6 1.06e+05    -  1.00e+00 8.39e-02h  1
iter    objective    inf_pr   inf_du lg(mu)  ||d||  lg(rg) alpha_du alpha_pr  ls
 290r 1.4844989e+03 3.88e+00 9.99e+02   0.6 0.00e+00    -  0.00e+00 8.67e-10R  2
 291r 1.4844991e+03 3.88e+00 9.99e+02   0.6 1.43e+08    -  4.06e-07 2.08e-09f  8
 292r 1.4844958e+03 2.36e+00 9.98e+02   0.6 7.28e+03    -  5.19e-04 1.90e-03f  1
 293  1.5468663e+03 1.91e+00 2.23e+01  -8.6 1.87e+05    -  4.85e-01 1.27e-02H  1
 294  1.5443698e+03 1.86e+00 2.20e+01  -8.6 1.75e+05    -  1.79e-09 2.69e-02f  6
 295  1.5434281e+03 1.85e+00 1.20e+01  -8.6 1.52e+05    -  1.00e+00 7.81e-03f  8
 296  1.5435994e+03 1.84e+00 1.19e+01  -8.6 1.49e+05    -  2.17e-02 3.38e-03h  9
 297  1.5585147e+03 1.77e+00 1.35e+01  -8.6 1.34e+05    -  1.00e+00 4.02e-02h  2
 298  1.5654413e+03 1.76e+00 1.32e+01  -8.6 1.50e+05    -  1.00e+00 8.16e-03h  1
 299  3.1300314e+03 3.48e-01 4.68e+03  -8.6 1.64e+05    -  1.05e-01 1.00e+00h  1
iter    objective    inf_pr   inf_du lg(mu)  ||d||  lg(rg) alpha_du alpha_pr  ls
 300  3.0693680e+03 3.55e-01 4.65e+03  -8.6 1.59e+06    -  7.06e-04 4.84e-03f  4
 301  2.7663397e+03 1.03e-01 6.26e+03  -8.6 2.15e+05    -  1.00e+00 1.00e+00F  1
 302  2.6240222e+03 7.01e-02 3.10e+04  -8.6 1.98e+05    -  2.65e-01 3.75e-01f  1
 303  2.6434422e+03 1.71e-03 1.94e+05  -8.6 3.71e+04    -  1.16e-03 1.00e+00h  1
 304  2.6500246e+03 1.10e-04 5.03e-01  -8.6 1.42e+03    -  1.00e+00 1.00e+00h  1
 305  2.6500543e+03 7.52e-09 6.71e-05  -8.6 5.49e+00    -  1.00e+00 1.00e+00h  1
 306  2.6500543e+03 1.48e-12 2.69e-09  -8.6 2.45e-04    -  1.00e+00 1.00e+00h  1

Number of Iterations....: 306

                                   (scaled)                 (unscaled)
Objective...............:   2.6500543325536705e+03    2.6500543325536705e+03
Dual infeasibility......:   2.6918152287395624e-09    2.6918152287395624e-09
Constraint violation....:   1.4845902285287593e-12    1.4845902285287593e-12
Complementarity.........:   2.5059035596800630e-09    2.5059035596800630e-09
Overall NLP error.......:   3.0229266988475434e-11    2.6918152287395624e-09


Number of objective function evaluations             = 2472
Number of objective gradient evaluations             = 300
Number of equality constraint evaluations            = 2472
Number of inequality constraint evaluations          = 0
Number of equality constraint Jacobian evaluations   = 319
Number of inequality constraint Jacobian evaluations = 0
Number of Lagrangian Hessian evaluations             = 306
Total CPU secs in IPOPT (w/o function evaluations)   =      0.538
Total CPU secs in NLP function evaluations           =     18.754

EXIT: Optimal Solution Found.
